25 50
1 2 1
1 6 4
2 3 2
2 7 4
3 4 2
3 8 4
4 5 5
4 9 1
5 10 2
6 7 4
6 11 1
7 8 5
7 12 5
8 9 3
8 13 1
9 10 3
9 14 2
10 15 5
11 12 4
11 16 1
12 13 1
12 17 3
13 14 1
13 18 2
14 15 1
14 19 5
15 20 1
16 17 5
16 21 4
17 18 3
17 22 4
18 19 2
18 23 2
19 20 3
19 24 2
20 25 1
21 22 1
22 23 1
23 24 1
24 25 3
1 21 1
2 22 2
3 23 5
4 24 1
5 25 4
1 5 3
6 10 1
11 15 4
16 20 1
21 25 3
